========================================================== 
File name: C:\DEGR\assets\definitions\MSRCPSP_Gen\100_5_64_10_B.def
Creation date: Wed May 03 10:37:10 CEST 2023
Website: http://imopse.ii.pwr.edu.pl/ 
Reference: 
Myszkowski P. B., Skowronski M. E., Olech L., Oslizlo K., 
Hybrid Ant Colony Optimization in solving Multi-Skill Resource-Constrained Project Scheduling Problem, 
Soft Computing, DOI: DOI 10.1007/s00500-014-1455-x 
========================================================== 
General characteristics: 
Tasks: 100
Resources: 5
Precedence relations: 64
Number of skill types: 10
========================================================== 
ResourceID 	 Salary 	 Skills 
1	 	 	54.2	 	 Q0: 0 	  Q7: 3 	  Q1: 0 	  Q4: 2 	  Q8: 2 	  Q2: 2 	 
2	 	 	17.7	 	 Q1: 1 	  Q0: 2 	 
3	 	 	17.0	 	 Q1: 1 	  Q8: 2 	  Q9: 1 	  Q0: 1 	  Q2: 0 	  Q5: 0 	  Q4: 2 	 
4	 	 	94.0	 	 Q2: 1 	  Q9: 3 	  Q7: 2 	  Q3: 1 	  Q5: 2 	  Q8: 0 	  Q6: 0 	  Q1: 3 	  Q4: 0 	 
5	 	 	47.3	 	 Q1: 0 	  Q0: 3 	  Q5: 1 	  Q9: 2 	  Q7: 1 	  Q3: 0 	 
========================================================== 
TaskID 	 Duration 	 Skill 	 Predecessor IDs 
1	32	Q7:	3
2	30	Q4:	0
3	39	Q4:	2
4	22	Q8:	2
5	22	Q0:	0
6	20	Q9:	3
7	13	Q2:	0
8	10	Q8:	0
9	29	Q7:	2
10	17	Q5:	0
11	40	Q2:	0
12	23	Q8:	0	8
13	34	Q5:	0
14	24	Q9:	2
15	38	Q6:	0
16	14	Q8:	2	6
17	10	Q9:	3
18	29	Q5:	0
19	13	Q2:	0
20	11	Q1:	0	4
21	35	Q9:	2
22	34	Q1:	3
23	18	Q7:	2
24	19	Q1:	3	4
25	40	Q0:	0	10
26	28	Q0:	0
27	36	Q3:	1
28	30	Q4:	2
29	24	Q2:	1
30	27	Q0:	1
31	20	Q5:	1
32	37	Q9:	3
33	20	Q8:	2	25
34	16	Q7:	1
35	21	Q0:	2
36	14	Q2:	1
37	20	Q5:	0	15
38	31	Q7:	1
39	12	Q5:	0
40	28	Q2:	0
41	39	Q5:	2	8
42	16	Q0:	2
43	36	Q3:	1	19
44	33	Q5:	2
45	40	Q3:	1	33
46	16	Q7:	1
47	40	Q7:	1
48	33	Q1:	0
49	12	Q4:	2
50	19	Q2:	2	4	43
51	38	Q3:	0
52	29	Q8:	0
53	19	Q1:	0	11
54	19	Q7:	1	4
55	32	Q1:	3	52	48
56	22	Q6:	0	48	5
57	34	Q1:	1	51
58	12	Q2:	0
59	16	Q2:	1
60	39	Q0:	1	45	50
61	26	Q3:	1	47
62	9	Q4:	2	4	9
63	22	Q8:	0	1
64	11	Q7:	1
65	30	Q9:	2
66	26	Q5:	0
67	25	Q5:	1	15
68	33	Q1:	3	18	43	48
69	20	Q0:	2
70	11	Q2:	1	54
71	33	Q8:	0	31
72	33	Q3:	0	60
73	12	Q1:	1	55
74	29	Q9:	1
75	29	Q9:	1	55
76	12	Q7:	3	55	31
77	18	Q3:	0	18
78	31	Q7:	1	13	27	28
79	31	Q7:	1	27
80	36	Q1:	3	62	24
81	16	Q6:	0	54
82	9	Q5:	0	75
83	26	Q7:	2	18
84	16	Q7:	3	13	58	83
85	10	Q5:	2	74
86	34	Q1:	3	16	36
87	20	Q9:	2	30
88	9	Q4:	2	75
89	13	Q5:	2
90	29	Q2:	1
91	31	Q9:	1	70	24
92	10	Q7:	1
93	13	Q9:	1
94	20	Q4:	2	76
95	32	Q9:	2
96	9	Q7:	2	1
97	31	Q3:	1	20
98	33	Q6:	0
99	11	Q5:	0	19	7	96
100	20	Q3:	0	29	65
========================================================== 